% seed = 2202702

mint = 46;
% maxt = 199;

nActs = 42;
dur = [0,6,9,9,5,4,6,7,9,4,1,5,2,2,10,9,10,4,6,4,2,3,9,8,7,8,3,5,2,7,1,5,3,2,1,4,4,2,2,2,7,0];

nSkills = 4;
sreq = [| 0,0,0,0,
	| 3,0,7,5,
	| 3,0,2,3,
	| 7,0,6,5,
	| 0,4,4,6,
	| 4,2,0,6,
	| 3,0,7,3,
	| 0,3,5,5,
	| 1,5,6,0,
	| 3,0,4,4,
	| 0,4,4,5,
	| 7,4,0,5,
	| 5,5,4,0,
	| 3,0,3,4,
	| 2,3,3,0,
	| 7,0,5,7,
	| 4,0,3,5,
	| 2,5,4,0,
	| 0,6,7,2,
	| 3,2,0,7,
	| 7,0,3,4,
	| 4,3,0,5,
	| 3,4,4,0,
	| 1,0,5,3,
	| 3,2,2,0,
	| 1,2,0,1,
	| 5,3,0,2,
	| 0,3,3,7,
	| 3,2,0,3,
	| 4,4,2,0,
	| 2,5,4,0,
	| 6,4,3,0,
	| 3,6,0,5,
	| 4,4,0,4,
	| 3,0,3,7,
	| 0,4,3,3,
	| 5,7,0,4,
	| 7,2,0,3,
	| 4,2,0,2,
	| 6,5,0,6,
	| 4,3,0,3,
	| 0,0,0,0, |];

nResources = 30;
mastery = [| true,true,false,true,
	| false,true,true,true,
	| true,false,false,false,
	| false,true,false,true,
	| true,true,true,false,
	| true,false,false,false,
	| false,false,true,false,
	| false,false,true,false,
	| false,true,true,true,
	| true,false,true,true,
	| true,false,false,false,
	| true,false,false,false,
	| false,true,true,false,
	| true,false,false,false,
	| true,true,false,true,
	| true,false,false,true,
	| false,true,true,true,
	| true,false,false,false,
	| false,false,false,true,
	| false,false,true,true,
	| false,true,false,true,
	| false,true,true,false,
	| false,true,true,false,
	| false,true,false,false,
	| true,false,false,false,
	| false,false,true,false,
	| true,false,false,false,
	| true,true,false,true,
	| true,false,true,true,
	| true,false,true,false, |];

nPrecs = 61;
pred = [1,1,1,2,3,3,3,4,4,4,5,6,6,6,7,8,9,9,9,10,10,10,11,12,12,13,13,14,15,16,17,17,18,19,20,20,21,22,22,23,24,25,26,26,27,27,28,29,29,30,31,32,33,34,35,36,37,38,39,40,41];
succ = [2,3,4,5,9,6,7,17,18,7,13,25,27,8,15,18,10,14,30,11,12,16,23,35,28,19,20,22,35,29,26,21,41,31,34,32,24,29,31,33,38,32,27,31,41,40,32,37,39,39,36,37,36,36,37,41,40,39,42,42,42];

nUnrels = 571;
unpred = [2,2,2,2,2,2,2,2,2,2,2,2,2,2,2,2,2,2,2,2,2,2,2,2,2,2,2,2,3,3,3,3,3,3,3,3,3,3,3,4,4,4,4,4,4,4,4,4,4,4,4,4,4,4,4,4,4,4,4,4,5,5,5,5,5,5,5,5,5,5,5,5,5,5,5,5,5,5,5,5,5,5,5,5,5,5,6,6,6,6,6,6,6,6,6,6,6,6,6,6,6,6,6,6,6,6,6,6,6,6,6,6,6,7,7,7,7,7,7,7,7,7,7,7,7,7,7,7,7,7,7,7,7,7,7,7,7,7,7,7,7,7,7,8,8,8,8,8,8,8,8,8,8,8,8,8,8,8,8,8,8,8,8,8,8,8,8,8,8,8,8,8,8,8,9,9,9,9,9,9,9,9,9,9,9,9,9,10,10,10,10,10,10,10,10,10,10,10,10,10,10,10,10,10,11,11,11,11,11,11,11,11,11,11,11,11,11,11,11,11,11,11,11,11,11,11,11,11,11,11,12,12,12,12,12,12,12,12,12,12,12,12,12,12,12,12,12,12,12,12,12,12,12,12,13,13,13,13,13,13,13,13,13,13,13,13,13,13,13,13,13,13,13,14,14,14,14,14,14,14,14,14,14,14,14,14,14,14,14,14,14,14,15,15,15,15,15,15,15,15,15,15,15,15,15,15,15,15,15,15,15,15,15,15,15,16,16,16,16,16,16,16,16,16,16,16,16,16,16,16,16,16,16,16,16,16,17,17,17,17,17,17,17,17,17,17,17,17,17,17,18,18,18,18,18,18,18,18,18,18,18,18,18,18,18,18,18,18,18,18,18,18,19,19,19,19,19,19,19,19,19,19,19,19,19,19,19,19,19,19,19,20,20,20,20,20,20,20,20,20,20,20,20,20,20,20,21,21,21,21,21,21,21,21,21,21,21,21,21,21,21,21,21,22,22,22,22,22,22,22,22,22,22,22,22,23,23,23,23,23,23,23,23,23,23,23,23,23,23,23,24,24,24,24,24,24,24,24,24,24,24,24,24,24,24,25,25,25,25,25,25,25,25,25,25,25,25,25,26,26,26,26,26,26,26,26,26,26,27,27,27,27,27,27,27,27,27,27,27,27,28,28,28,28,28,28,28,28,28,28,29,29,29,29,29,29,29,29,29,30,30,30,30,30,30,30,30,30,30,31,31,31,31,31,31,31,31,32,32,32,32,32,32,32,33,33,33,33,33,33,34,34,34,34,34,35,35,35,35,36,36,36,36,37,37,37,38,38,39,39,40];
unsucc = [3,4,6,7,8,9,10,11,12,14,15,16,17,18,21,22,23,24,25,26,27,28,29,30,33,35,38,39,4,5,13,17,19,20,21,24,26,34,38,5,6,8,9,10,11,12,13,14,16,19,20,22,23,25,28,29,30,32,33,34,6,7,8,9,10,11,12,14,15,16,17,18,21,22,23,24,25,26,27,28,29,30,33,35,38,39,7,9,10,11,12,13,14,15,16,17,19,20,21,22,23,24,26,28,29,30,31,33,34,35,36,38,39,8,9,10,11,12,13,14,16,17,18,19,20,21,22,23,24,25,26,27,28,29,30,31,32,33,34,36,38,39,41,9,10,11,12,13,14,15,16,17,19,20,21,22,23,24,25,26,27,28,29,30,31,32,33,34,35,36,37,38,39,40,13,15,17,18,19,20,21,24,25,26,27,34,38,13,14,15,17,18,19,20,21,22,24,25,26,27,30,31,34,38,12,13,14,15,16,17,18,19,20,21,22,24,25,26,27,28,29,30,31,32,34,35,37,38,39,40,13,14,15,16,17,18,19,20,21,22,23,24,25,26,27,29,30,31,33,34,36,38,39,41,14,15,16,17,18,21,22,23,24,25,26,27,28,29,30,33,35,38,39,15,16,17,18,19,20,21,23,24,25,26,27,28,30,32,33,34,35,38,16,17,18,19,20,21,22,23,24,25,26,27,28,29,30,31,32,33,34,36,38,39,41,17,18,19,20,21,22,23,24,25,26,27,28,30,31,32,33,34,35,36,38,41,18,19,20,22,23,25,28,29,30,32,33,34,35,37,19,20,21,22,23,24,25,26,27,28,29,30,31,32,33,34,35,36,37,38,39,40,20,21,22,23,24,25,26,27,28,29,30,32,33,34,35,37,38,39,40,21,22,23,24,25,26,27,28,29,30,31,33,35,38,39,22,23,25,26,27,28,29,30,31,32,33,34,35,36,37,40,41,23,24,25,26,27,28,30,32,33,34,35,38,24,25,26,27,28,29,30,31,32,34,35,37,38,39,40,25,26,27,28,29,30,31,32,33,34,35,36,37,40,41,26,27,28,29,30,31,33,34,35,36,38,39,41,28,29,30,32,33,34,35,37,38,39,28,29,30,31,32,33,34,35,36,37,38,39,29,30,31,33,34,35,36,38,39,41,30,31,32,33,34,35,36,38,41,31,32,33,34,35,36,37,38,40,41,32,33,34,35,37,38,39,40,33,34,35,36,38,39,41,34,35,37,38,39,40,35,37,38,39,40,36,38,39,41,37,38,39,40,38,39,41,40,41,40,41,41];

USEFUL_RES = [{},
	{1,2,3,4,5,6,7,8,9,10,11,12,13,14,15,16,17,18,19,20,21,22,23,25,26,27,28,29,30},
	{1,2,3,4,5,6,7,8,9,10,11,12,13,14,15,16,17,18,19,20,21,22,23,25,26,27,28,29,30},
	{1,2,3,4,5,6,7,8,9,10,11,12,13,14,15,16,17,18,19,20,21,22,23,25,26,27,28,29,30},
	{1,2,4,5,7,8,9,10,13,15,16,17,19,20,21,22,23,24,26,28,29,30},
	{1,2,3,4,5,6,9,10,11,12,13,14,15,16,17,18,19,20,21,22,23,24,25,27,28,29,30},
	{1,2,3,4,5,6,7,8,9,10,11,12,13,14,15,16,17,18,19,20,21,22,23,25,26,27,28,29,30},
	{1,2,4,5,7,8,9,10,13,15,16,17,19,20,21,22,23,24,26,28,29,30},
	{1,2,3,4,5,6,7,8,9,10,11,12,13,14,15,16,17,18,20,21,22,23,24,25,26,27,28,29,30},
	{1,2,3,4,5,6,7,8,9,10,11,12,13,14,15,16,17,18,19,20,21,22,23,25,26,27,28,29,30},
	{1,2,4,5,7,8,9,10,13,15,16,17,19,20,21,22,23,24,26,28,29,30},
	{1,2,3,4,5,6,9,10,11,12,13,14,15,16,17,18,19,20,21,22,23,24,25,27,28,29,30},
	{1,2,3,4,5,6,7,8,9,10,11,12,13,14,15,16,17,18,20,21,22,23,24,25,26,27,28,29,30},
	{1,2,3,4,5,6,7,8,9,10,11,12,13,14,15,16,17,18,19,20,21,22,23,25,26,27,28,29,30},
	{1,2,3,4,5,6,7,8,9,10,11,12,13,14,15,16,17,18,20,21,22,23,24,25,26,27,28,29,30},
	{1,2,3,4,5,6,7,8,9,10,11,12,13,14,15,16,17,18,19,20,21,22,23,25,26,27,28,29,30},
	{1,2,3,4,5,6,7,8,9,10,11,12,13,14,15,16,17,18,19,20,21,22,23,25,26,27,28,29,30},
	{1,2,3,4,5,6,7,8,9,10,11,12,13,14,15,16,17,18,20,21,22,23,24,25,26,27,28,29,30},
	{1,2,4,5,7,8,9,10,13,15,16,17,19,20,21,22,23,24,26,28,29,30},
	{1,2,3,4,5,6,9,10,11,12,13,14,15,16,17,18,19,20,21,22,23,24,25,27,28,29,30},
	{1,2,3,4,5,6,7,8,9,10,11,12,13,14,15,16,17,18,19,20,21,22,23,25,26,27,28,29,30},
	{1,2,3,4,5,6,9,10,11,12,13,14,15,16,17,18,19,20,21,22,23,24,25,27,28,29,30},
	{1,2,3,4,5,6,7,8,9,10,11,12,13,14,15,16,17,18,20,21,22,23,24,25,26,27,28,29,30},
	{1,2,3,4,5,6,7,8,9,10,11,12,13,14,15,16,17,18,19,20,21,22,23,25,26,27,28,29,30},
	{1,2,3,4,5,6,7,8,9,10,11,12,13,14,15,16,17,18,20,21,22,23,24,25,26,27,28,29,30},
	{1,2,3,4,5,6,9,10,11,12,13,14,15,16,17,18,19,20,21,22,23,24,25,27,28,29,30},
	{1,2,3,4,5,6,9,10,11,12,13,14,15,16,17,18,19,20,21,22,23,24,25,27,28,29,30},
	{1,2,4,5,7,8,9,10,13,15,16,17,19,20,21,22,23,24,26,28,29,30},
	{1,2,3,4,5,6,9,10,11,12,13,14,15,16,17,18,19,20,21,22,23,24,25,27,28,29,30},
	{1,2,3,4,5,6,7,8,9,10,11,12,13,14,15,16,17,18,20,21,22,23,24,25,26,27,28,29,30},
	{1,2,3,4,5,6,7,8,9,10,11,12,13,14,15,16,17,18,20,21,22,23,24,25,26,27,28,29,30},
	{1,2,3,4,5,6,7,8,9,10,11,12,13,14,15,16,17,18,20,21,22,23,24,25,26,27,28,29,30},
	{1,2,3,4,5,6,9,10,11,12,13,14,15,16,17,18,19,20,21,22,23,24,25,27,28,29,30},
	{1,2,3,4,5,6,9,10,11,12,13,14,15,16,17,18,19,20,21,22,23,24,25,27,28,29,30},
	{1,2,3,4,5,6,7,8,9,10,11,12,13,14,15,16,17,18,19,20,21,22,23,25,26,27,28,29,30},
	{1,2,4,5,7,8,9,10,13,15,16,17,19,20,21,22,23,24,26,28,29,30},
	{1,2,3,4,5,6,9,10,11,12,13,14,15,16,17,18,19,20,21,22,23,24,25,27,28,29,30},
	{1,2,3,4,5,6,9,10,11,12,13,14,15,16,17,18,19,20,21,22,23,24,25,27,28,29,30},
	{1,2,3,4,5,6,9,10,11,12,13,14,15,16,17,18,19,20,21,22,23,24,25,27,28,29,30},
	{1,2,3,4,5,6,9,10,11,12,13,14,15,16,17,18,19,20,21,22,23,24,25,27,28,29,30},
	{1,2,3,4,5,6,9,10,11,12,13,14,15,16,17,18,19,20,21,22,23,24,25,27,28,29,30},
	{}];

POTENTIAL_ACT = [{2,3,4,5,6,7,8,9,10,11,12,13,14,15,16,17,18,19,20,21,22,23,24,25,26,27,28,29,30,31,32,33,34,35,36,37,38,39,40,41},
	{2,3,4,5,6,7,8,9,10,11,12,13,14,15,16,17,18,19,20,21,22,23,24,25,26,27,28,29,30,31,32,33,34,35,36,37,38,39,40,41},
	{2,3,4,6,7,9,10,12,13,14,15,16,17,18,20,21,22,23,24,25,26,27,29,30,31,32,33,34,35,37,38,39,40,41},
	{2,3,4,5,6,7,8,9,10,11,12,13,14,15,16,17,18,19,20,21,22,23,24,25,26,27,28,29,30,31,32,33,34,35,36,37,38,39,40,41},
	{2,3,4,5,6,7,8,9,10,11,12,13,14,15,16,17,18,19,20,21,22,23,24,25,26,27,28,29,30,31,32,33,34,35,36,37,38,39,40,41},
	{2,3,4,6,7,9,10,12,13,14,15,16,17,18,20,21,22,23,24,25,26,27,29,30,31,32,33,34,35,37,38,39,40,41},
	{2,3,4,5,7,8,9,10,11,13,14,15,16,17,18,19,21,23,24,25,28,30,31,32,35,36},
	{2,3,4,5,7,8,9,10,11,13,14,15,16,17,18,19,21,23,24,25,28,30,31,32,35,36},
	{2,3,4,5,6,7,8,9,10,11,12,13,14,15,16,17,18,19,20,21,22,23,24,25,26,27,28,29,30,31,32,33,34,35,36,37,38,39,40,41},
	{2,3,4,5,6,7,8,9,10,11,12,13,14,15,16,17,18,19,20,21,22,23,24,25,26,27,28,29,30,31,32,33,34,35,36,37,38,39,40,41},
	{2,3,4,6,7,9,10,12,13,14,15,16,17,18,20,21,22,23,24,25,26,27,29,30,31,32,33,34,35,37,38,39,40,41},
	{2,3,4,6,7,9,10,12,13,14,15,16,17,18,20,21,22,23,24,25,26,27,29,30,31,32,33,34,35,37,38,39,40,41},
	{2,3,4,5,6,7,8,9,10,11,12,13,14,15,16,17,18,19,20,21,22,23,24,25,26,27,28,29,30,31,32,33,34,35,36,37,38,39,40,41},
	{2,3,4,6,7,9,10,12,13,14,15,16,17,18,20,21,22,23,24,25,26,27,29,30,31,32,33,34,35,37,38,39,40,41},
	{2,3,4,5,6,7,8,9,10,11,12,13,14,15,16,17,18,19,20,21,22,23,24,25,26,27,28,29,30,31,32,33,34,35,36,37,38,39,40,41},
	{2,3,4,5,6,7,8,9,10,11,12,13,14,15,16,17,18,19,20,21,22,23,24,25,26,27,28,29,30,31,32,33,34,35,36,37,38,39,40,41},
	{2,3,4,5,6,7,8,9,10,11,12,13,14,15,16,17,18,19,20,21,22,23,24,25,26,27,28,29,30,31,32,33,34,35,36,37,38,39,40,41},
	{2,3,4,6,7,9,10,12,13,14,15,16,17,18,20,21,22,23,24,25,26,27,29,30,31,32,33,34,35,37,38,39,40,41},
	{2,3,4,5,6,7,8,10,11,12,14,16,17,19,20,21,22,24,26,27,28,29,33,34,35,36,37,38,39,40,41},
	{2,3,4,5,6,7,8,9,10,11,12,13,14,15,16,17,18,19,20,21,22,23,24,25,26,27,28,29,30,31,32,33,34,35,36,37,38,39,40,41},
	{2,3,4,5,6,7,8,9,10,11,12,13,14,15,16,17,18,19,20,21,22,23,24,25,26,27,28,29,30,31,32,33,34,35,36,37,38,39,40,41},
	{2,3,4,5,6,7,8,9,10,11,12,13,14,15,16,17,18,19,20,21,22,23,24,25,26,27,28,29,30,31,32,33,34,35,36,37,38,39,40,41},
	{2,3,4,5,6,7,8,9,10,11,12,13,14,15,16,17,18,19,20,21,22,23,24,25,26,27,28,29,30,31,32,33,34,35,36,37,38,39,40,41},
	{5,6,8,9,11,12,13,15,18,19,20,22,23,25,26,27,28,29,30,31,32,33,34,36,37,38,39,40,41},
	{2,3,4,6,7,9,10,12,13,14,15,16,17,18,20,21,22,23,24,25,26,27,29,30,31,32,33,34,35,37,38,39,40,41},
	{2,3,4,5,7,8,9,10,11,13,14,15,16,17,18,19,21,23,24,25,28,30,31,32,35,36},
	{2,3,4,6,7,9,10,12,13,14,15,16,17,18,20,21,22,23,24,25,26,27,29,30,31,32,33,34,35,37,38,39,40,41},
	{2,3,4,5,6,7,8,9,10,11,12,13,14,15,16,17,18,19,20,21,22,23,24,25,26,27,28,29,30,31,32,33,34,35,36,37,38,39,40,41},
	{2,3,4,5,6,7,8,9,10,11,12,13,14,15,16,17,18,19,20,21,22,23,24,25,26,27,28,29,30,31,32,33,34,35,36,37,38,39,40,41},
	{2,3,4,5,6,7,8,9,10,11,12,13,14,15,16,17,18,19,20,21,22,23,24,25,26,27,28,29,30,31,32,33,34,35,36,37,38,39,40,41}];
